; benchmark generated from python API
(set-info :status unknown)
(declare-fun a6 () Real)
(declare-fun a5 () Real)
(declare-fun a4 () Real)
(declare-fun a3 () Real)
(declare-fun a2 () Real)
(declare-fun a1 () Real)
(declare-fun a0 () Real)
(assert
 (forall ((x1 Real) (x2 Real) (x3 Real) )(let ((?x117 (^ x3 2.0)))
 (let ((?x118 (* a3 ?x117)))
 (let ((?x125 (+ (+ (+ a0 (* a1 (^ x1 2.0))) (* a2 (^ x2 2.0))) ?x118)))
 (let ((?x128 (+ (+ (+ ?x125 (* (* a4 x1) x2)) (* (* a5 x2) x3)) (* (* a6 x1) x3))))
 (let (($x129 (>= ?x128 0.0)))
 (let (($x130 (<= x3 5.0)))
 (let (($x131 (>= x3 (- 5.0))))
 (let (($x132 (<= x2 5.0)))
 (let (($x133 (>= x2 (- 5.0))))
 (let (($x134 (<= x1 5.0)))
 (let (($x135 (>= x1 (- 5.0))))
 (let (($x136 (and $x135 $x134 $x133 $x132 $x131 $x130)))
 (let (($x141 (and (<= (- (+ (+ (^ x1 2.0) (^ x2 2.0)) ?x117) (/ 1.0 4.0)) 0.0) $x136)))
 (=> $x141 $x129)))))))))))))))
 )
(assert
 (forall ((x1 Real) (x2 Real) (x3 Real) )(let ((?x150 (* (+ (- (- (- x1) (* 2.0 x2)) x3) (^ x1 3.0)) (/ 1.0 10.0))))
 (let ((?x151 (+ x3 ?x150)))
 (let ((?x169 (+ (+ a0 (* a1 (^ (- x1 (* (/ 1.0 10.0) x2)) 2.0))) (* a2 (^ (- x2 (* (/ 1.0 10.0) x3)) 2.0)))))
 (let ((?x171 (+ (+ ?x169 (* a3 (^ ?x151 2.0))) (* (* a4 (- x1 (* (/ 1.0 10.0) x2))) (- x2 (* (/ 1.0 10.0) x3))))))
 (let ((?x173 (+ (+ ?x171 (* (* a5 (- x2 (* (/ 1.0 10.0) x3))) ?x151)) (* (* a6 (- x1 (* (/ 1.0 10.0) x2))) ?x151))))
 (let (($x130 (<= x3 5.0)))
 (let (($x131 (>= x3 (- 5.0))))
 (let (($x132 (<= x2 5.0)))
 (let (($x133 (>= x2 (- 5.0))))
 (let (($x134 (<= x1 5.0)))
 (let (($x135 (>= x1 (- 5.0))))
 (let (($x136 (and $x135 $x134 $x133 $x132 $x131 $x130)))
 (let (($x178 (>= (- (- (- 9.0 (^ x1 2.0)) (^ x2 2.0)) (^ x3 2.0)) 0.0)))
 (let ((?x117 (^ x3 2.0)))
 (let ((?x118 (* a3 ?x117)))
 (let ((?x125 (+ (+ (+ a0 (* a1 (^ x1 2.0))) (* a2 (^ x2 2.0))) ?x118)))
 (let ((?x128 (+ (+ (+ ?x125 (* (* a4 x1) x2)) (* (* a5 x2) x3)) (* (* a6 x1) x3))))
 (let (($x129 (>= ?x128 0.0)))
 (=> (and $x129 $x178 $x136) (>= ?x173 0.0)))))))))))))))))))))
 )
(assert
 (forall ((x1 Real) (x2 Real) (x3 Real) )(let ((?x183 (* x2 x3)))
 (let ((?x184 (* x1 x3)))
 (let ((?x185 (* x1 x2)))
 (let ((?x117 (^ x3 2.0)))
 (let ((?x119 (^ x2 2.0)))
 (let ((?x121 (^ x1 2.0)))
 (let ((?x191 (- (- (- (- (* (- 2.0) x1) (* 2.0 x2)) (* 2.0 x3)) ?x121) ?x119)))
 (let (($x130 (<= x3 5.0)))
 (let (($x131 (>= x3 (- 5.0))))
 (let (($x132 (<= x2 5.0)))
 (let (($x133 (>= x2 (- 5.0))))
 (let (($x134 (<= x1 5.0)))
 (let (($x135 (>= x1 (- 5.0))))
 (let (($x136 (and $x135 $x134 $x133 $x132 $x131 $x130)))
 (let ((?x126 (+ (+ (+ (+ a0 (* a1 ?x121)) (* a2 ?x119)) (* a3 ?x117)) (* (* a4 x1) x2))))
 (let (($x129 (>= (+ (+ ?x126 (* (* a5 x2) x3)) (* (* a6 x1) x3)) 0.0)))
 (=> (and $x129 (not (>= (- (- (- 9.0 ?x121) ?x119) ?x117) 0.0)) $x136) (<= (+ (+ (+ (- ?x191 ?x117) ?x185) ?x184) ?x183) 0.0)))))))))))))))))))
 )
(check-sat)
